Traveling Salesman Problem/TSP_generados/Aleatorio1621103340_10.tsp
NAME: Aleatorio1621103340_10.tsp
COMMENT: Randomly generated scenario
TYPE: TSP
DIMENSION: 10
EDGE_WEIGHT_TYPE: ATT
NODE_COORD_SECTION
1 42.06 10.47
2 41.8 39.14
3 19.71 32.72
4 22.31 30.94
5 11.41 13.36
6 41.91 25.05
7 43.01 16.28
8 17.23 38.49
9 5.84 5.96
10 19.3 3.39
