Traveling Salesman Problem/TSP_generados/Aleatorio1621103340_10.opt.tour
NAME: Aleatorio1621103340_10.opt.tour
COMMENT: Optimal solution for Aleatorio1621103340_10 (130.31209726130965)
TYPE: TOUR
DIMENSION: 10
TOUR_SECTION
1 10 9 5 4 3 8 2 6 7
-1
EOF
